% Wedding Seat Assignment Data File.
%Evaluation (0 = Utilitarian, 1 = Egalitarian)
Evaluation = 1;

%Number of Tables
nTables = 3;

%Number of Seats per Table:
nSeats = 4;

%Number of Guests:
nGuests = 10;

%Groups that Must be seated together
nGroups = 4;
Groups = [{1,3},{5,6},{8,9},{4,10}];

%Pref Weight
PrefWeight = 3;
%Preference Graph: Row i is the person that Guest i would like to sit with.
%There must be as many rows as nGuests.
Pref = [
{2,3,4},
{1,6,9},
{1,4},
{3,9},
{6},
{5},
{1,8,9},
{7,9},
{4},
{5,8,9}
];

%Troublemakers
Trouble = {2, 3};